language Essence 1.3
letting nnodes be 70
letting nrings be 35
letting capacity be 35
letting demand be 
{{1, 6},
{1, 7},
{1, 8},
{1, 9},
{1, 10},
{1, 12},
{1, 15},
{1, 18},
{1, 19},
{1, 21},
{1, 22},
{1, 24},
{1, 25},
{1, 26},
{1, 29},
{1, 32},
{1, 34},
{1, 35},
{1, 36},
{1, 37},
{1, 40},
{1, 44},
{1, 46},
{1, 49},
{1, 50},
{1, 52},
{1, 54},
{1, 58},
{1, 59},
{1, 60},
{1, 62},
{1, 63},
{1, 64},
{1, 65},
{1, 67},
{1, 68},
{1, 69},
{1, 70},
{2, 3},
{2, 9},
{2, 11},
{2, 12},
{2, 14},
{2, 17},
{2, 19},
{2, 20},
{2, 21},
{2, 25},
{2, 26},
{2, 29},
{2, 37},
{2, 39},
{2, 40},
{2, 41},
{2, 42},
{2, 43},
{2, 44},
{2, 47},
{2, 48},
{2, 49},
{2, 52},
{2, 53},
{2, 54},
{2, 56},
{2, 57},
{2, 58},
{2, 62},
{2, 63},
{2, 65},
{2, 66},
{2, 67},
{2, 70},
{3, 7},
{3, 8},
{3, 10},
{3, 11},
{3, 12},
{3, 14},
{3, 16},
{3, 17},
{3, 18},
{3, 20},
{3, 22},
{3, 25},
{3, 26},
{3, 28},
{3, 29},
{3, 31},
{3, 32},
{3, 33},
{3, 34},
{3, 35},
{3, 36},
{3, 37},
{3, 39},
{3, 40},
{3, 41},
{3, 47},
{3, 48},
{3, 50},
{3, 51},
{3, 52},
{3, 53},
{3, 54},
{3, 55},
{3, 58},
{3, 62},
{3, 63},
{3, 65},
{3, 66},
{3, 67},
{3, 68},
{3, 69},
{4, 5},
{4, 6},
{4, 7},
{4, 8},
{4, 19},
{4, 21},
{4, 22},
{4, 23},
{4, 24},
{4, 29},
{4, 30},
{4, 32},
{4, 34},
{4, 36},
{4, 41},
{4, 43},
{4, 44},
{4, 45},
{4, 48},
{4, 49},
{4, 52},
{4, 54},
{4, 57},
{4, 60},
{4, 64},
{4, 68},
{4, 70},
{5, 6},
{5, 8},
{5, 9},
{5, 10},
{5, 11},
{5, 16},
{5, 18},
{5, 23},
{5, 24},
{5, 25},
{5, 27},
{5, 29},
{5, 31},
{5, 35},
{5, 36},
{5, 38},
{5, 39},
{5, 41},
{5, 42},
{5, 45},
{5, 46},
{5, 47},
{5, 53},
{5, 54},
{5, 55},
{5, 56},
{5, 57},
{5, 60},
{5, 61},
{5, 62},
{5, 67},
{5, 68},
{6, 11},
{6, 12},
{6, 13},
{6, 14},
{6, 15},
{6, 16},
{6, 17},
{6, 19},
{6, 21},
{6, 23},
{6, 26},
{6, 30},
{6, 32},
{6, 34},
{6, 35},
{6, 36},
{6, 37},
{6, 38},
{6, 40},
{6, 42},
{6, 44},
{6, 45},
{6, 49},
{6, 53},
{6, 54},
{6, 55},
{6, 58},
{6, 66},
{6, 67},
{6, 68},
{7, 9},
{7, 10},
{7, 12},
{7, 13},
{7, 14},
{7, 16},
{7, 20},
{7, 23},
{7, 27},
{7, 28},
{7, 29},
{7, 32},
{7, 36},
{7, 38},
{7, 41},
{7, 42},
{7, 44},
{7, 45},
{7, 50},
{7, 53},
{7, 54},
{7, 56},
{7, 57},
{7, 60},
{7, 63},
{7, 64},
{7, 65},
{7, 68},
{7, 70},
{8, 9},
{8, 10},
{8, 11},
{8, 13},
{8, 15},
{8, 16},
{8, 17},
{8, 19},
{8, 21},
{8, 22},
{8, 24},
{8, 26},
{8, 31},
{8, 33},
{8, 35},
{8, 37},
{8, 38},
{8, 43},
{8, 47},
{8, 48},
{8, 49},
{8, 55},
{8, 56},
{8, 57},
{8, 58},
{8, 60},
{8, 61},
{8, 62},
{8, 63},
{8, 69},
{9, 12},
{9, 15},
{9, 17},
{9, 19},
{9, 22},
{9, 23},
{9, 26},
{9, 27},
{9, 28},
{9, 29},
{9, 30},
{9, 31},
{9, 34},
{9, 35},
{9, 37},
{9, 38},
{9, 39},
{9, 40},
{9, 41},
{9, 42},
{9, 44},
{9, 47},
{9, 48},
{9, 53},
{9, 55},
{9, 58},
{9, 61},
{9, 62},
{9, 64},
{9, 65},
{9, 66},
{9, 67},
{9, 69},
{9, 70},
{10, 11},
{10, 12},
{10, 14},
{10, 18},
{10, 20},
{10, 25},
{10, 26},
{10, 27},
{10, 32},
{10, 34},
{10, 35},
{10, 36},
{10, 38},
{10, 39},
{10, 41},
{10, 42},
{10, 43},
{10, 45},
{10, 46},
{10, 50},
{10, 51},
{10, 54},
{10, 55},
{10, 56},
{10, 58},
{10, 61},
{10, 63},
{10, 64},
{10, 65},
{10, 66},
{10, 67},
{11, 16},
{11, 17},
{11, 18},
{11, 20},
{11, 22},
{11, 26},
{11, 27},
{11, 28},
{11, 30},
{11, 31},
{11, 36},
{11, 38},
{11, 40},
{11, 41},
{11, 42},
{11, 43},
{11, 45},
{11, 46},
{11, 49},
{11, 51},
{11, 52},
{11, 55},
{11, 57},
{11, 60},
{11, 61},
{11, 63},
{11, 65},
{11, 68},
{12, 14},
{12, 15},
{12, 17},
{12, 19},
{12, 20},
{12, 23},
{12, 24},
{12, 27},
{12, 30},
{12, 32},
{12, 34},
{12, 36},
{12, 39},
{12, 41},
{12, 42},
{12, 44},
{12, 52},
{12, 56},
{12, 58},
{12, 61},
{12, 62},
{12, 63},
{12, 66},
{12, 69},
{12, 70},
{13, 16},
{13, 17},
{13, 19},
{13, 20},
{13, 22},
{13, 23},
{13, 24},
{13, 26},
{13, 28},
{13, 29},
{13, 31},
{13, 32},
{13, 34},
{13, 36},
{13, 37},
{13, 39},
{13, 40},
{13, 42},
{13, 43},
{13, 45},
{13, 47},
{13, 50},
{13, 51},
{13, 54},
{13, 55},
{13, 56},
{13, 61},
{13, 62},
{13, 64},
{13, 66},
{13, 68},
{14, 16},
{14, 17},
{14, 19},
{14, 20},
{14, 21},
{14, 22},
{14, 25},
{14, 27},
{14, 29},
{14, 30},
{14, 33},
{14, 34},
{14, 38},
{14, 40},
{14, 42},
{14, 44},
{14, 45},
{14, 46},
{14, 48},
{14, 49},
{14, 52},
{14, 53},
{14, 55},
{14, 56},
{14, 64},
{14, 65},
{14, 66},
{14, 67},
{14, 68},
{15, 16},
{15, 18},
{15, 29},
{15, 30},
{15, 31},
{15, 32},
{15, 35},
{15, 39},
{15, 40},
{15, 41},
{15, 42},
{15, 43},
{15, 44},
{15, 45},
{15, 46},
{15, 54},
{15, 55},
{15, 56},
{15, 61},
{15, 62},
{15, 63},
{15, 67},
{15, 68},
{15, 69},
{16, 18},
{16, 19},
{16, 21},
{16, 23},
{16, 24},
{16, 27},
{16, 30},
{16, 31},
{16, 32},
{16, 36},
{16, 40},
{16, 41},
{16, 42},
{16, 43},
{16, 46},
{16, 47},
{16, 48},
{16, 57},
{16, 58},
{16, 61},
{16, 62},
{16, 64},
{16, 65},
{16, 66},
{16, 67},
{16, 69},
{16, 70},
{17, 20},
{17, 22},
{17, 25},
{17, 26},
{17, 28},
{17, 29},
{17, 31},
{17, 36},
{17, 38},
{17, 39},
{17, 40},
{17, 44},
{17, 47},
{17, 50},
{17, 51},
{17, 52},
{17, 53},
{17, 57},
{17, 58},
{17, 60},
{17, 61},
{17, 66},
{17, 67},
{17, 68},
{17, 70},
{18, 19},
{18, 20},
{18, 22},
{18, 24},
{18, 26},
{18, 28},
{18, 30},
{18, 31},
{18, 34},
{18, 41},
{18, 42},
{18, 45},
{18, 47},
{18, 48},
{18, 49},
{18, 53},
{18, 54},
{18, 55},
{18, 58},
{18, 60},
{18, 61},
{18, 62},
{18, 63},
{18, 65},
{18, 68},
{18, 69},
{19, 20},
{19, 25},
{19, 27},
{19, 29},
{19, 30},
{19, 32},
{19, 33},
{19, 34},
{19, 35},
{19, 37},
{19, 39},
{19, 42},
{19, 46},
{19, 48},
{19, 51},
{19, 52},
{19, 53},
{19, 56},
{19, 57},
{19, 58},
{19, 60},
{19, 66},
{19, 67},
{19, 69},
{19, 70},
{20, 21},
{20, 22},
{20, 23},
{20, 24},
{20, 25},
{20, 27},
{20, 29},
{20, 30},
{20, 35},
{20, 36},
{20, 39},
{20, 40},
{20, 41},
{20, 42},
{20, 43},
{20, 46},
{20, 47},
{20, 48},
{20, 49},
{20, 51},
{20, 55},
{20, 57},
{20, 61},
{20, 63},
{20, 64},
{21, 25},
{21, 26},
{21, 28},
{21, 30},
{21, 33},
{21, 34},
{21, 36},
{21, 37},
{21, 41},
{21, 46},
{21, 50},
{21, 53},
{21, 55},
{21, 57},
{21, 59},
{21, 62},
{21, 64},
{21, 65},
{21, 66},
{21, 68},
{22, 24},
{22, 26},
{22, 27},
{22, 29},
{22, 31},
{22, 32},
{22, 33},
{22, 34},
{22, 37},
{22, 42},
{22, 44},
{22, 47},
{22, 52},
{22, 54},
{22, 56},
{22, 57},
{22, 60},
{22, 61},
{22, 63},
{22, 65},
{22, 66},
{22, 67},
{22, 69},
{23, 25},
{23, 27},
{23, 29},
{23, 31},
{23, 33},
{23, 36},
{23, 37},
{23, 38},
{23, 42},
{23, 44},
{23, 45},
{23, 48},
{23, 49},
{23, 50},
{23, 51},
{23, 52},
{23, 55},
{23, 59},
{23, 61},
{23, 62},
{23, 67},
{23, 69},
{24, 27},
{24, 28},
{24, 29},
{24, 30},
{24, 31},
{24, 35},
{24, 36},
{24, 37},
{24, 42},
{24, 43},
{24, 45},
{24, 46},
{24, 47},
{24, 48},
{24, 50},
{24, 55},
{24, 58},
{24, 61},
{24, 62},
{24, 63},
{24, 66},
{24, 69},
{25, 27},
{25, 29},
{25, 30},
{25, 32},
{25, 33},
{25, 35},
{25, 36},
{25, 41},
{25, 42},
{25, 43},
{25, 45},
{25, 46},
{25, 47},
{25, 50},
{25, 53},
{25, 58},
{25, 61},
{25, 62},
{25, 64},
{25, 66},
{25, 68},
{25, 69},
{26, 27},
{26, 28},
{26, 30},
{26, 33},
{26, 35},
{26, 36},
{26, 37},
{26, 38},
{26, 39},
{26, 41},
{26, 42},
{26, 47},
{26, 48},
{26, 49},
{26, 51},
{26, 52},
{26, 53},
{26, 54},
{26, 56},
{26, 57},
{26, 59},
{26, 62},
{26, 65},
{26, 66},
{26, 67},
{26, 69},
{27, 28},
{27, 29},
{27, 35},
{27, 38},
{27, 39},
{27, 40},
{27, 42},
{27, 43},
{27, 45},
{27, 46},
{27, 50},
{27, 51},
{27, 52},
{27, 54},
{27, 56},
{27, 59},
{27, 66},
{27, 68},
{27, 70},
{28, 29},
{28, 31},
{28, 35},
{28, 42},
{28, 43},
{28, 47},
{28, 49},
{28, 52},
{28, 53},
{28, 56},
{28, 57},
{28, 58},
{28, 60},
{28, 62},
{28, 64},
{28, 66},
{28, 67},
{28, 68},
{29, 31},
{29, 34},
{29, 38},
{29, 41},
{29, 42},
{29, 43},
{29, 45},
{29, 52},
{29, 53},
{29, 55},
{29, 57},
{29, 61},
{29, 62},
{29, 68},
{29, 69},
{29, 70},
{30, 37},
{30, 38},
{30, 39},
{30, 44},
{30, 47},
{30, 48},
{30, 50},
{30, 55},
{30, 56},
{30, 57},
{30, 63},
{30, 64},
{30, 65},
{30, 67},
{30, 68},
{30, 70},
{31, 32},
{31, 35},
{31, 36},
{31, 38},
{31, 39},
{31, 44},
{31, 50},
{31, 51},
{31, 52},
{31, 53},
{31, 54},
{31, 59},
{31, 62},
{31, 66},
{32, 33},
{32, 41},
{32, 43},
{32, 44},
{32, 45},
{32, 46},
{32, 49},
{32, 55},
{32, 56},
{32, 57},
{32, 62},
{32, 63},
{32, 64},
{32, 65},
{32, 67},
{32, 68},
{33, 36},
{33, 38},
{33, 40},
{33, 46},
{33, 48},
{33, 49},
{33, 50},
{33, 51},
{33, 52},
{33, 53},
{33, 55},
{33, 57},
{33, 58},
{33, 59},
{33, 60},
{33, 61},
{33, 62},
{33, 64},
{33, 66},
{33, 68},
{33, 69},
{34, 35},
{34, 36},
{34, 37},
{34, 38},
{34, 40},
{34, 42},
{34, 43},
{34, 45},
{34, 47},
{34, 52},
{34, 53},
{34, 55},
{34, 57},
{34, 58},
{34, 59},
{34, 64},
{34, 65},
{34, 67},
{34, 69},
{34, 70},
{35, 36},
{35, 39},
{35, 40},
{35, 42},
{35, 43},
{35, 45},
{35, 46},
{35, 47},
{35, 49},
{35, 50},
{35, 51},
{35, 55},
{35, 56},
{35, 61},
{35, 63},
{35, 64},
{35, 69},
{35, 70},
{36, 44},
{36, 46},
{36, 47},
{36, 48},
{36, 51},
{36, 52},
{36, 53},
{36, 55},
{36, 56},
{36, 57},
{36, 59},
{36, 60},
{36, 63},
{36, 67},
{36, 69},
{37, 42},
{37, 46},
{37, 47},
{37, 49},
{37, 50},
{37, 51},
{37, 52},
{37, 54},
{37, 59},
{37, 61},
{37, 63},
{37, 64},
{37, 65},
{37, 68},
{38, 39},
{38, 40},
{38, 49},
{38, 52},
{38, 53},
{38, 54},
{38, 57},
{38, 61},
{38, 62},
{38, 66},
{38, 67},
{38, 69},
{38, 70},
{39, 40},
{39, 42},
{39, 44},
{39, 48},
{39, 53},
{39, 57},
{39, 58},
{39, 60},
{39, 61},
{39, 63},
{39, 64},
{39, 66},
{40, 41},
{40, 42},
{40, 44},
{40, 46},
{40, 47},
{40, 48},
{40, 50},
{40, 51},
{40, 52},
{40, 53},
{40, 54},
{40, 56},
{40, 57},
{40, 58},
{40, 59},
{40, 61},
{40, 62},
{40, 63},
{40, 66},
{40, 67},
{40, 68},
{40, 69},
{40, 70},
{41, 42},
{41, 43},
{41, 48},
{41, 49},
{41, 52},
{41, 55},
{41, 56},
{41, 58},
{41, 63},
{41, 68},
{41, 69},
{41, 70},
{42, 44},
{42, 45},
{42, 46},
{42, 48},
{42, 49},
{42, 53},
{42, 57},
{42, 59},
{42, 60},
{42, 61},
{42, 62},
{42, 64},
{42, 66},
{42, 67},
{42, 68},
{43, 44},
{43, 45},
{43, 46},
{43, 47},
{43, 48},
{43, 52},
{43, 54},
{43, 55},
{43, 61},
{43, 62},
{43, 64},
{43, 65},
{43, 66},
{43, 67},
{43, 68},
{43, 69},
{44, 49},
{44, 50},
{44, 54},
{44, 59},
{44, 60},
{44, 61},
{44, 62},
{44, 64},
{44, 65},
{44, 66},
{44, 67},
{44, 68},
{45, 46},
{45, 47},
{45, 48},
{45, 50},
{45, 52},
{45, 53},
{45, 54},
{45, 55},
{45, 59},
{45, 61},
{45, 64},
{45, 65},
{45, 67},
{45, 68},
{45, 69},
{46, 48},
{46, 50},
{46, 54},
{46, 55},
{46, 57},
{46, 60},
{46, 65},
{46, 68},
{46, 69},
{46, 70},
{47, 48},
{47, 50},
{47, 51},
{47, 52},
{47, 53},
{47, 54},
{47, 55},
{47, 56},
{47, 58},
{47, 59},
{47, 60},
{47, 63},
{47, 66},
{48, 51},
{48, 53},
{48, 55},
{48, 57},
{48, 59},
{48, 61},
{48, 62},
{48, 64},
{48, 65},
{48, 67},
{49, 50},
{49, 51},
{49, 52},
{49, 54},
{49, 56},
{49, 62},
{49, 65},
{49, 67},
{49, 68},
{49, 69},
{49, 70},
{50, 52},
{50, 55},
{50, 56},
{50, 57},
{50, 59},
{50, 61},
{50, 63},
{50, 65},
{50, 69},
{51, 53},
{51, 55},
{51, 57},
{51, 58},
{51, 60},
{51, 62},
{51, 63},
{51, 64},
{51, 65},
{51, 68},
{52, 54},
{52, 56},
{52, 57},
{52, 58},
{52, 59},
{52, 60},
{52, 66},
{53, 57},
{53, 58},
{53, 65},
{53, 66},
{53, 67},
{53, 68},
{53, 70},
{54, 55},
{54, 56},
{54, 57},
{54, 58},
{54, 59},
{54, 61},
{54, 64},
{54, 66},
{54, 68},
{55, 56},
{55, 58},
{55, 59},
{55, 61},
{55, 65},
{55, 66},
{55, 67},
{55, 69},
{56, 57},
{56, 59},
{56, 60},
{56, 62},
{56, 63},
{56, 64},
{56, 65},
{56, 66},
{56, 67},
{56, 68},
{57, 59},
{57, 60},
{57, 61},
{57, 64},
{57, 65},
{57, 66},
{57, 67},
{57, 68},
{58, 63},
{58, 65},
{58, 68},
{58, 70},
{59, 61},
{59, 62},
{59, 63},
{59, 66},
{59, 67},
{59, 68},
{59, 70},
{60, 61},
{60, 64},
{60, 65},
{60, 66},
{60, 67},
{61, 62},
{61, 63},
{61, 64},
{61, 66},
{61, 67},
{61, 68},
{62, 64},
{62, 65},
{62, 66},
{62, 68},
{63, 65},
{63, 68},
{63, 69},
{64, 65},
{64, 68},
{64, 69},
{65, 67},
{65, 68},
{65, 69},
{65, 70},
{66, 68},
{66, 69},
{67, 68},
{67, 69},
{67, 70},
{69, 70}}
